(declare-rel inv2 (Int Int Int Int))
(declare-rel fail ())
(declare-var A Int)
(declare-var B Int)
(declare-var C Int)
(declare-var D Int)
(declare-var E Int)
(declare-var F Int)
(declare-var G Int)
(rule (=> (and (= E 0) (= B 0) (= G 0) (= 3452365 A)) (inv2 E B G A)))
(rule (let ((a!1 (and (inv2 E B G A)
                (= C (+ E 1))
                (= F (+ B E))
                (= D (ite (> B E) (+ G 1) G)))))
  (=> a!1 (inv2 C F D A))))
(rule (=> (and (inv2 E B G A) (>= E A) (not (> G 0))) fail))
(query fail)

